NAME          COPTPROB
OBJSENSE
  MIN
ROWS
 N  __OBJ___
 L  C38     
 L  C64     
 L  C79     
 L  C181    
 L  C190    
 L  C197    
 L  C261    
COLUMNS
    MARKER    'MARKER'                 'INTORG'
    x15       __OBJ___  -1
    x15       C64       1
    x15       C79       1
    x25       __OBJ___  -1
    x25       C38       1
    x25       C197      1
    x86       __OBJ___  -1
    x86       C79       1
    x86       C190      1
    x106      __OBJ___  -1
    x106      C38       1
    x106      C190      1
    x129      __OBJ___  -1
    x129      C64       1
    x129      C261      1
    x130      __OBJ___  -1
    x130      C181      1
    x130      C197      1
    x150      __OBJ___  -1
    x150      C181      1
    x150      C261      1
    MARKER    'MARKER'                 'INTEND'
RHS
    RHS       __OBJ___  76
    RHS       C38       1
    RHS       C64       1
    RHS       C79       1
    RHS       C181      1
    RHS       C190      1
    RHS       C197      1
    RHS       C261      1
BOUNDS
 UP BOUND     x15       1
 UP BOUND     x25       1
 UP BOUND     x86       1
 UP BOUND     x106      1
 UP BOUND     x129      1
 UP BOUND     x130      1
 UP BOUND     x150      1
ENDATA
